20	5
0	4	2	4	1	3
1	5	17	11	13	16	15
2	4	11	7	20	9
3	2	5	11
4	5	12	15	17	18	13
5	2	8	7
6	1	16
7	6	12	19	16	17	15	13
8	3	20	14	9
9	3	17	10	19
10	2	6	15
11	1	21
12	1	21
13	1	21
14	1	21
15	1	21
16	1	21
17	1	21
18	1	21
19	1	21
20	1	21
21	0
0	0	0	0	0	0	0
1	7	1	0	3	0	0
2	4	2	0	0	0	5
3	4	4	5	2	2	3
4	4	4	0	1	3	0
5	6	4	3	0	0	4
6	7	0	0	0	2	0
7	9	0	1	0	1	2
8	4	0	2	0	4	0
9	4	4	3	4	0	3
10	10	4	3	5	0	3
11	8	0	0	3	4	0
12	9	1	0	3	0	4
13	6	0	0	0	0	3
14	10	1	3	0	3	0
15	7	5	0	0	0	2
16	4	0	0	0	3	0
17	1	0	4	0	5	5
18	2	5	1	0	0	0
19	2	0	0	0	2	0
20	3	0	4	3	0	1
21	0	0	0	0	0	0
8	6	6	6	7
